p cnf 34 26
-1 29 0 
-2 30 -29 0 
-3 29 0 
-4 29 0 
-5 9 18 21 28 29 0 
-6 31 -29 0 
-7 -8 32 -29 0 
-9 5 18 21 28 33 -29 0 
-1 34 -29 0 
-10 29 0 
-11 29 0 
-12 -13 29 0 
-14 -15 29 0 
-12 -15 29 0 
-16 29 0 
-1 -17 29 0 
-18 5 9 21 28 31 -29 0 
-18 5 9 21 28 32 -29 0 
-19 29 0 
-14 -13 -20 29 0 
-21 5 9 18 28 29 0 
-4 -22 -23 29 0 
-24 29 0 
-25 -26 -20 29 0 
-27 29 0 
-28 5 9 18 21 29 0 
